
<<< setup

Version identifier: 22.1.1.0 | 2022-11-27 | 9160aff4d
Tried aggregator 1 time.
LP Presolve eliminated 111 rows and 73 columns.
Reduced LP has 3 rows, 25 columns, and 25 nonzeros.
Presolve time = 0.00 sec. (0.05 ticks)

Iteration log . . .
Iteration:     1   Dual objective     =          1831.455113
main returns 0

<<< main


<<< done

